%nprocshared=30
%mem=30GB
%chk=1.chk
#p opt=(ts,calcfc,noeigen,gdiis) freq gen em=gd3 m062x

test

0 2
 C                  1.85690000    0.96073400   -0.36553200
 H                  1.22071100    1.01836900   -1.25426000
 H                  2.59697100    1.75363500   -0.22388800
 H                  1.08231900    1.12509700    0.60171700
 Cl                 2.52815500   -0.62425200   -0.15040400
 O                 -0.60384300   -0.55055900   -1.61528800
 H                 -0.42522600   -1.02634600   -0.78537400
 H                 -1.48290800   -0.86392900   -1.86513700
 O                 -3.09176600   -0.69667300   -0.03446600
 H                 -3.91703800   -1.09376400    0.25852600
 H                 -2.39051300   -1.04633800    0.54777100
 O                 -1.69014900    1.77450400   -0.36606100
 H                 -1.28381300    1.16625600   -1.00833300
 H                 -2.49636000    1.29274400   -0.12522100
 O                  0.29034900    1.17549400    1.43280500
 H                 -0.44703100    1.60990500    0.93857000
 H                 -0.27091000   -0.41686300    1.41665900
 O                 -0.66413400   -1.29084600    1.15368800
 H                 -0.22989200   -1.96623600    1.68361000

@/scratch3/usr/yutong/ma/ma-TZVP.txt


