%nprocshared=30
%mem=30GB
%chk=1.chk
#p opt=gdiis freq gen em=gd3 m062x

test

0 2
 C                  2.22925400   -1.07402700    0.08876400
 H                  1.44915900   -1.29092300    0.80121900
 H                  2.87308700   -1.81754700   -0.35093600
 H                  0.66080900   -0.57533400   -1.96951900
 Cl                 2.78887200    0.53182200    0.03389600
 O                 -0.47041800   -0.67037500    1.84813800
 H                 -0.50573400    0.20328700    1.41514100
 H                 -0.84811900   -0.56226000    2.72214300
 O                 -3.31573900    0.80062600    0.13020300
 H                 -3.98093800    1.33877100   -0.29520300
 H                 -2.48692800    1.30739300    0.11576900
 O                 -1.96079000   -1.62699000   -0.42710200
 H                 -1.50562600   -1.62129200    0.42907500
 H                 -2.66067700   -0.96158700   -0.32121400
 O                 -0.20995700   -0.15825400   -1.88552000
 H                 -0.81047100   -0.83684600   -1.49847300
 H                 -0.35328000    0.99896200   -0.67564100
 O                 -0.61811200    1.52204300    0.12636700
 H                 -0.01751000    2.28415700    0.18213500

@/scratch3/usr/yutong/ma/ma-TZVP.txt


