%nprocshared=32
%mem=30GB
%chk=1.chk
#p opt=gdiis freq gen em=gd3 m062x 

test

0 2
 C                  2.68637300    0.73213400   -0.01949000
 H                  1.84722400    0.60931800   -0.69845900
 H                  3.53095400    1.17923400   -0.53243100
 H                  2.40932400    1.31757300    0.85127300
 Cl                 3.19421700   -0.88746100    0.54206100
 O                 -0.07410100   -0.20525400   -1.88038100
 H                 -0.09146700   -0.79915400   -1.10898300
 H                 -0.25107100   -0.74245000   -2.65631900
 O                 -2.79626400   -1.02919800    0.34301500
 H                 -3.46737200   -1.38119000    0.93121900
 H                 -1.94660000   -1.41876400    0.60594100
 O                 -1.72417700    1.48037500   -0.34912900
 H                 -1.24922700    1.13665200   -1.12308000
 H                 -2.34071400    0.76359600   -0.12009900
 O                  0.09507400    1.31897300    1.57673100
 H                 -0.60662100    1.53099800    0.88438100
 H                  0.08491500   -0.46189300    1.17290900
 O                 -0.04978300   -1.31579900    0.71050300
 H                  0.74931500   -1.82768900    0.87034100

@/nscratch/usr/yutong/script/ma-def2-basis-set-definition/ma-TZVP.txt


